; benchmark generated from python API
(set-info :status unknown)
(declare-fun DISJ_W_S2_R_S1 () Bool)
(declare-fun W_S2_V3 () Bool)
(declare-fun R_S2_V4 () Bool)
(declare-fun R_S2_V5 () Bool)
(declare-fun W_S1_V5 () Bool)
(declare-fun W_S2_V2 () Bool)
(declare-fun R_S2_V1 () Bool)
(declare-fun W_S1_V4 () Bool)
(declare-fun W_S2_V5 () Bool)
(declare-fun DISJ_W_S1_W_S2 () Bool)
(declare-fun R_S2_V3 () Bool)
(declare-fun W_S2_V1 () Bool)
(declare-fun DISJ_W_S1_R_S2 () Bool)
(declare-fun DISJ_W_S2_R_S2 () Bool)
(declare-fun R_E1_V4 () Bool)
(declare-fun R_E1_V5 () Bool)
(declare-fun R_S2_V2 () Bool)
(declare-fun R_S1_V4 () Bool)
(declare-fun R_S1_V5 () Bool)
(declare-fun R_S1_V2 () Bool)
(declare-fun R_S1_V3 () Bool)
(declare-fun R_S1_V1 () Bool)
(declare-fun R_E1_V2 () Bool)
(declare-fun DISJ_W_S2_R_E1 () Bool)
(declare-fun R_E1_V3 () Bool)
(declare-fun DISJ_W_S1_R_S1 () Bool)
(declare-fun W_S2_V4 () Bool)
(declare-fun W_S1_V3 () Bool)
(declare-fun W_S1_V2 () Bool)
(declare-fun W_S1_V1 () Bool)
(declare-fun R_E1_V1 () Bool)
(declare-fun DISJ_W_S1_R_E1 () Bool)
(assert
 (let (($x2879 (not (and (not R_S2_V5) (not R_S2_V4) (not W_S2_V3) DISJ_W_S2_R_S1))))
 (let (($x2824 (not (and (not R_S2_V4) (not W_S1_V5) (not W_S2_V3) DISJ_W_S2_R_S1))))
 (let (($x1889 (not W_S2_V3)))
 (let (($x3035 (not W_S2_V2)))
 (let (($x1945 (not R_S2_V5)))
 (let (($x1977 (not R_S2_V1)))
 (let (($x72 (not (and $x1977 $x1945 $x3035 $x1889 DISJ_W_S2_R_S1))))
 (let (($x913 (not (and $x1945 (not W_S1_V4) $x1889 DISJ_W_S2_R_S1))))
 (let (($x678 (not (and $x1977 $x3035 (not W_S2_V5) $x1889 DISJ_W_S2_R_S1))))
 (let (($x1580 (not (and DISJ_W_S1_W_S2 DISJ_W_S2_R_S1))))
 (let (($x5869 (not (and $x1977 (not R_S2_V3) $x1945 $x3035 DISJ_W_S2_R_S1))))
 (let (($x1076 (not (and $x1977 (not R_S2_V3) (not R_S2_V4) $x3035 DISJ_W_S2_R_S1))))
 (let (($x1205 (not (and $x1977 (not R_S2_V4) $x3035 (not W_S2_V5) DISJ_W_S2_R_S1))))
 (let (($x1819 (not (and $x1977 $x1945 (not R_S2_V4) $x3035 DISJ_W_S2_R_S1))))
 (let (($x4966 (not (and $x1977 (not R_S2_V3) $x3035 (not W_S2_V5) DISJ_W_S2_R_S1))))
 (let (($x2200 (not W_S2_V1)))
 (let (($x758 (and $x2200 $x3035)))
 (let (($x2696 (not $x758)))
 (let (($x1637 (not (and (not R_S2_V3) (not R_S2_V4) (not W_S2_V5) DISJ_W_S2_R_S1))))
 (let (($x1761 (not (and (not R_S2_V4) (not W_S2_V5) $x1889 DISJ_W_S2_R_S1))))
 (let (($x2419 (not (and (not R_S2_V3) (not W_S1_V4) (not W_S2_V5) DISJ_W_S2_R_S1))))
 (let (($x703 (not (and DISJ_W_S1_R_S2 DISJ_W_S2_R_S1))))
 (let (($x1951 (not (and $x3035 DISJ_W_S2_R_S2))))
 (let (($x1604 (not (and DISJ_W_S2_R_S1 DISJ_W_S2_R_S2))))
 (let (($x69 (not (and W_S1_V4 R_E1_V4))))
 (let (($x5905 (not (and W_S1_V5 R_E1_V5))))
 (let (($x2222 (forall ((V3_0 Int) )(forall ((V2_0 Int) )(forall ((V5_0 Int) )(forall ((V4_0 Int) )(forall ((MW_S1_V1 Bool) )(forall ((MW_S1_V3 Bool) )(forall ((MW_S1_V2 Bool) )(forall ((MW_S1_V5 Bool) )(forall ((MW_S1_V4 Bool) )(forall ((MW_S2_V1 Bool) )(forall ((MW_S2_V3 Bool) )(forall ((MW_S2_V2 Bool) )(forall ((MW_S2_V5 Bool) )(forall ((MW_S2_V4 Bool) )(forall ((S1_V1_!2447 Int) )(forall ((S1_V1_!2464 Int) )(forall ((S1_V1_!2474 Int) )(forall ((S2_V5_!2456 Int) )(forall ((S2_V5_!2461 Int) )(forall ((S2_V5_!2472 Int) )(forall ((S2_V5_!2482 Int) )(forall ((S1_V3_!2448 Int) )(forall ((S1_V3_!2465 Int) )(forall ((S1_V3_!2475 Int) )(forall ((S1_V2_!2449 Int) )(forall ((S1_V2_!2466 Int) )(forall ((S1_V2_!2476 Int) )(forall ((E1_!2446 Int) )(forall ((E1_!2452 Int) )(forall ((E1_!2463 Int) )(forall ((S2_V4_!2457 Int) )(forall ((S2_V4_!2462 Int) )(forall ((S2_V4_!2473 Int) )(forall ((S2_V4_!2483 Int) )(forall ((S1_V5_!2450 Int) )(forall ((S1_V5_!2467 Int) )(forall ((S1_V5_!2477 Int) )(forall ((S2_V1_!2453 Int) )(forall ((S2_V1_!2458 Int) )(forall ((S2_V1_!2469 Int) )(forall ((S2_V1_!2479 Int) )(forall ((S1_V4_!2451 Int) )(forall ((S1_V4_!2468 Int) )(forall ((S1_V4_!2478 Int) )(forall ((S2_V2_!2455 Int) )(forall ((S2_V2_!2460 Int) )(forall ((S2_V2_!2471 Int) )(forall ((S2_V2_!2481 Int) )(forall ((S2_V3_!2454 Int) )(forall ((S2_V3_!2459 Int) )(forall ((S2_V3_!2470 Int) )(forall ((S2_V3_!2480 Int) )(let (($x4804 (= (ite MW_S2_V4 S2_V4_!2462 (ite MW_S1_V4 S1_V4_!2451 V4_0)) (ite MW_S2_V4 S2_V4_!2483 (ite MW_S1_V4 S1_V4_!2478 (ite MW_S2_V4 S2_V4_!2473 (ite MW_S1_V4 S1_V4_!2468 V4_0)))))))
 (let (($x972 (= (ite MW_S2_V5 S2_V5_!2461 (ite MW_S1_V5 S1_V5_!2450 V5_0)) (ite MW_S2_V5 S2_V5_!2482 (ite MW_S1_V5 S1_V5_!2477 (ite MW_S2_V5 S2_V5_!2472 (ite MW_S1_V5 S1_V5_!2467 V5_0)))))))
 (let ((?x2259 (ite MW_S1_V2 S1_V2_!2466 V2_0)))
 (let ((?x3636 (ite MW_S2_V2 S2_V2_!2471 ?x2259)))
 (let ((?x2697 (ite MW_S1_V2 S1_V2_!2476 ?x3636)))
 (let ((?x3474 (ite MW_S2_V2 S2_V2_!2481 ?x2697)))
 (let ((?x765 (ite MW_S1_V2 S1_V2_!2449 V2_0)))
 (let ((?x1135 (ite MW_S2_V2 S2_V2_!2460 ?x765)))
 (let (($x1614 (= (ite MW_S2_V3 S2_V3_!2459 (ite MW_S1_V3 S1_V3_!2448 V3_0)) (ite MW_S2_V3 S2_V3_!2480 (ite MW_S1_V3 S1_V3_!2475 (ite MW_S2_V3 S2_V3_!2470 (ite MW_S1_V3 S1_V3_!2465 V3_0)))))))
 (let ((?x5937 (ite MW_S1_V1 S1_V1_!2464 E1_!2463)))
 (let ((?x4137 (ite MW_S2_V1 S2_V1_!2469 ?x5937)))
 (let ((?x1791 (+ 1 ?x4137)))
 (let ((?x1156 (ite MW_S1_V1 S1_V1_!2474 ?x1791)))
 (let ((?x4926 (ite MW_S2_V1 S2_V1_!2479 ?x1156)))
 (let ((?x2487 (ite MW_S2_V1 S2_V1_!2453 E1_!2452)))
 (let ((?x5885 (+ 1 ?x2487)))
 (let ((?x2605 (ite MW_S2_V1 S2_V1_!2458 ?x5885)))
 (let (($x4669 (and (not (<= V2_0 E1_!2446)) (>= (ite MW_S1_V1 S1_V1_!2447 E1_!2446) (+ (- 1) ?x765)) (not (<= ?x765 E1_!2452)) (not (<= (ite MW_S2_V2 S2_V2_!2455 ?x765) ?x5885)) (>= ?x2605 (+ (- 1) ?x1135)) (not (<= V2_0 E1_!2463)) (not (<= ?x3636 ?x1791)) (>= ?x4926 (+ (- 1) ?x3474)))))
 (let (($x1277 (= S2_V3_!2480 S2_V3_!2470)))
 (let ((?x5471 (ite MW_S1_V4 S1_V4_!2468 V4_0)))
 (let ((?x987 (ite MW_S2_V4 S2_V4_!2473 ?x5471)))
 (let ((?x3898 (ite MW_S1_V4 S1_V4_!2478 ?x987)))
 (let (($x3132 (not R_S2_V4)))
 (let ((?x2079 (ite MW_S1_V5 S1_V5_!2467 V5_0)))
 (let ((?x3039 (ite MW_S2_V5 S2_V5_!2472 ?x2079)))
 (let ((?x3725 (ite MW_S1_V5 S1_V5_!2477 ?x3039)))
 (let (($x1945 (not R_S2_V5)))
 (let ((?x2818 (ite MW_S1_V3 S1_V3_!2465 V3_0)))
 (let ((?x5838 (ite MW_S2_V3 S2_V3_!2470 ?x2818)))
 (let ((?x3364 (ite MW_S1_V3 S1_V3_!2475 ?x5838)))
 (let (($x3843 (not R_S2_V3)))
 (let (($x2439 (and (or (not R_S2_V1) (= ?x1156 ?x5937)) (or $x3843 (= ?x3364 ?x2818)) (or (not R_S2_V2) (= ?x2697 ?x2259)) (or $x1945 (= ?x3725 ?x2079)) (or $x3132 (= ?x3898 ?x5471)))))
 (let (($x1361 (not $x2439)))
 (let (($x5108 (= S2_V3_!2480 S2_V3_!2459)))
 (let (($x3693 (and (or (not R_S2_V1) (= ?x1156 ?x5885)) (or $x3843 (= ?x3364 (ite MW_S2_V3 S2_V3_!2454 (ite MW_S1_V3 S1_V3_!2448 V3_0)))) (or (not R_S2_V2) (= ?x2697 (ite MW_S2_V2 S2_V2_!2455 ?x765))) (or $x1945 (= ?x3725 (ite MW_S2_V5 S2_V5_!2456 (ite MW_S1_V5 S1_V5_!2450 V5_0)))) (or $x3132 (= ?x3898 (ite MW_S2_V4 S2_V4_!2457 (ite MW_S1_V4 S1_V4_!2451 V4_0)))))))
 (let (($x2070 (not $x3693)))
 (let (($x3435 (= S2_V3_!2470 S2_V3_!2459)))
 (let (($x3208 (and (or (not R_S2_V1) (= ?x5937 ?x5885)) (or $x3843 (= ?x2818 (ite MW_S2_V3 S2_V3_!2454 (ite MW_S1_V3 S1_V3_!2448 V3_0)))) (or (not R_S2_V2) (= ?x2259 (ite MW_S2_V2 S2_V2_!2455 ?x765))) (or $x1945 (= ?x2079 (ite MW_S2_V5 S2_V5_!2456 (ite MW_S1_V5 S1_V5_!2450 V5_0)))) (or $x3132 (= ?x5471 (ite MW_S2_V4 S2_V4_!2457 (ite MW_S1_V4 S1_V4_!2451 V4_0)))))))
 (let (($x2473 (not $x3208)))
 (let (($x3339 (= S2_V3_!2454 S2_V3_!2480)))
 (let (($x1570 (and (or (not R_S2_V1) (= E1_!2452 ?x1156)) (or $x3843 (= (ite MW_S1_V3 S1_V3_!2448 V3_0) ?x3364)) (or (not R_S2_V2) (= ?x765 ?x2697)) (or $x1945 (= (ite MW_S1_V5 S1_V5_!2450 V5_0) ?x3725)) (or $x3132 (= (ite MW_S1_V4 S1_V4_!2451 V4_0) ?x3898)))))
 (let (($x2284 (not $x1570)))
 (let (($x5050 (= S2_V3_!2454 S2_V3_!2470)))
 (let (($x1718 (and (or (not R_S2_V1) (= E1_!2452 ?x5937)) (or $x3843 (= (ite MW_S1_V3 S1_V3_!2448 V3_0) ?x2818)) (or (not R_S2_V2) (= ?x765 ?x2259)) (or $x1945 (= (ite MW_S1_V5 S1_V5_!2450 V5_0) ?x2079)) (or $x3132 (= (ite MW_S1_V4 S1_V4_!2451 V4_0) ?x5471)))))
 (let (($x3506 (not $x1718)))
 (let (($x1011 (= S2_V3_!2454 S2_V3_!2459)))
 (let (($x487 (or $x3132 (= (ite MW_S1_V4 S1_V4_!2451 V4_0) (ite MW_S2_V4 S2_V4_!2457 (ite MW_S1_V4 S1_V4_!2451 V4_0))))))
 (let (($x144 (or $x1945 (= (ite MW_S1_V5 S1_V5_!2450 V5_0) (ite MW_S2_V5 S2_V5_!2456 (ite MW_S1_V5 S1_V5_!2450 V5_0))))))
 (let (($x3309 (or $x3843 (= (ite MW_S1_V3 S1_V3_!2448 V3_0) (ite MW_S2_V3 S2_V3_!2454 (ite MW_S1_V3 S1_V3_!2448 V3_0))))))
 (let (($x1902 (and (or (not R_S2_V1) (= E1_!2452 ?x5885)) $x3309 (or (not R_S2_V2) (= ?x765 (ite MW_S2_V2 S2_V2_!2455 ?x765))) $x144 $x487)))
 (let (($x780 (not $x1902)))
 (let (($x3070 (= S2_V2_!2481 S2_V2_!2455)))
 (let (($x14 (and (or (not R_S2_V1) (= ?x1156 E1_!2452)) (or $x3843 (= ?x3364 (ite MW_S1_V3 S1_V3_!2448 V3_0))) (or (not R_S2_V2) (= ?x2697 ?x765)) (or $x1945 (= ?x3725 (ite MW_S1_V5 S1_V5_!2450 V5_0))) (or $x3132 (= ?x3898 (ite MW_S1_V4 S1_V4_!2451 V4_0))))))
 (let (($x3588 (not $x14)))
 (let (($x3501 (= S2_V2_!2471 S2_V2_!2481)))
 (let (($x1956 (and (or (not R_S2_V1) (= ?x5937 ?x1156)) (or $x3843 (= ?x2818 ?x3364)) (or (not R_S2_V2) (= ?x2259 ?x2697)) (or $x1945 (= ?x2079 ?x3725)) (or $x3132 (= ?x5471 ?x3898)))))
 (let (($x963 (not $x1956)))
 (let (($x3173 (= S2_V2_!2471 S2_V2_!2455)))
 (let (($x2282 (and (or (not R_S2_V1) (= ?x5937 E1_!2452)) (or $x3843 (= ?x2818 (ite MW_S1_V3 S1_V3_!2448 V3_0))) (or (not R_S2_V2) (= ?x2259 ?x765)) (or $x1945 (= ?x2079 (ite MW_S1_V5 S1_V5_!2450 V5_0))) (or $x3132 (= ?x5471 (ite MW_S1_V4 S1_V4_!2451 V4_0))))))
 (let (($x2929 (not $x2282)))
 (let (($x791 (not R_S1_V4)))
 (let (($x3166 (or $x791 (= ?x987 V4_0))))
 (let (($x3470 (not R_S1_V5)))
 (let (($x5744 (or $x3470 (= ?x3039 V5_0))))
 (let (($x5291 (not R_S1_V2)))
 (let (($x5984 (or $x5291 (= ?x3636 V2_0))))
 (let (($x363 (not R_S1_V3)))
 (let (($x594 (or $x363 (= ?x5838 V3_0))))
 (let (($x3361 (and (or (not R_S1_V1) (= ?x4137 (+ (- 1) E1_!2446))) $x594 $x5984 $x5744 $x3166)))
 (let (($x1670 (not $x3361)))
 (let (($x1240 (= S1_V4_!2468 S1_V4_!2478)))
 (let (($x2107 (or $x791 (= V4_0 ?x987))))
 (let (($x1573 (or $x3470 (= V5_0 ?x3039))))
 (let (($x3524 (or $x5291 (= V2_0 ?x3636))))
 (let (($x1847 (or $x363 (= V3_0 ?x5838))))
 (let (($x2805 (not (and (or (not R_S1_V1) (= E1_!2463 ?x1791)) $x1847 $x3524 $x1573 $x2107))))
 (let (($x3728 (and (or (not R_S2_V1) (= ?x2487 (+ (- 1) ?x1156))) (or $x3843 (= (ite MW_S2_V3 S2_V3_!2454 (ite MW_S1_V3 S1_V3_!2448 V3_0)) ?x3364)) (or (not R_S2_V2) (= (ite MW_S2_V2 S2_V2_!2455 ?x765) ?x2697)) (or $x1945 (= (ite MW_S2_V5 S2_V5_!2456 (ite MW_S1_V5 S1_V5_!2450 V5_0)) ?x3725)) (or $x3132 (= (ite MW_S2_V4 S2_V4_!2457 (ite MW_S1_V4 S1_V4_!2451 V4_0)) ?x3898)))))
 (let (($x3943 (not $x3728)))
 (let (($x670 (and (or (not R_S1_V1) (= ?x4137 (+ (- 1) E1_!2463))) $x594 $x5984 $x5744 $x3166)))
 (let (($x800 (not $x670)))
 (let (($x1206 (and (or (not R_S2_V1) (= ?x2487 (+ (- 1) ?x5937))) (or $x3843 (= (ite MW_S2_V3 S2_V3_!2454 (ite MW_S1_V3 S1_V3_!2448 V3_0)) ?x2818)) (or (not R_S2_V2) (= (ite MW_S2_V2 S2_V2_!2455 ?x765) ?x2259)) (or $x1945 (= (ite MW_S2_V5 S2_V5_!2456 (ite MW_S1_V5 S1_V5_!2450 V5_0)) ?x2079)) (or $x3132 (= (ite MW_S2_V4 S2_V4_!2457 (ite MW_S1_V4 S1_V4_!2451 V4_0)) ?x5471)))))
 (let (($x3709 (not $x1206)))
 (let (($x3449 (= E1_!2463 E1_!2446)))
 (let (($x5251 (and (or (not R_E1_V2) (= ?x765 V2_0)) (or (not R_E1_V5) (= (ite MW_S1_V5 S1_V5_!2450 V5_0) V5_0)) (or (not R_E1_V4) (= (ite MW_S1_V4 S1_V4_!2451 V4_0) V4_0)))))
 (let (($x919 (not $x5251)))
 (let (($x171 (or $x3132 (= (ite MW_S2_V4 S2_V4_!2457 (ite MW_S1_V4 S1_V4_!2451 V4_0)) (ite MW_S1_V4 S1_V4_!2451 V4_0)))))
 (let (($x3134 (or $x1945 (= (ite MW_S2_V5 S2_V5_!2456 (ite MW_S1_V5 S1_V5_!2450 V5_0)) (ite MW_S1_V5 S1_V5_!2450 V5_0)))))
 (let (($x730 (or $x3843 (= (ite MW_S2_V3 S2_V3_!2454 (ite MW_S1_V3 S1_V3_!2448 V3_0)) (ite MW_S1_V3 S1_V3_!2448 V3_0)))))
 (let (($x2152 (and (or (not R_S2_V1) (= ?x2487 (+ (- 1) E1_!2452))) $x730 (or (not R_S2_V2) (= (ite MW_S2_V2 S2_V2_!2455 ?x765) ?x765)) $x3134 $x171)))
 (let (($x894 (or (not (and (or (not R_S1_V1) (= E1_!2446 ?x1791)) $x1847 $x3524 $x1573 $x2107)) (= S1_V1_!2447 S1_V1_!2474))))
 (let (($x3236 (and $x894 (or (not (or (not R_S1_V1) $x3449)) (= S1_V1_!2464 S1_V1_!2447)) (or $x2805 (= S1_V1_!2464 S1_V1_!2474)) (or $x3506 (= S2_V5_!2456 S2_V5_!2472)) (or (not $x2152) (= S2_V5_!2461 S2_V5_!2456)) (or $x3709 (= S2_V5_!2461 S2_V5_!2472)) (or $x3588 (= S2_V5_!2482 S2_V5_!2456)) (or $x2070 (= S2_V5_!2482 S2_V5_!2461)) (or $x1361 (= S2_V5_!2482 S2_V5_!2472)) (or (not (or (not R_S1_V1) $x3449)) (= S1_V3_!2465 S1_V3_!2448)) (or $x2805 (= S1_V3_!2465 S1_V3_!2475)) (or $x1670 (= S1_V3_!2475 S1_V3_!2448)) (or (not (or (not R_S1_V1) $x3449)) (= S1_V2_!2466 S1_V2_!2449)) (or $x1670 (= S1_V2_!2476 S1_V2_!2449)) (or $x800 (= S1_V2_!2476 S1_V2_!2466)) (or $x919 (= E1_!2452 E1_!2446)) (or $x919 (= E1_!2452 E1_!2463)) $x3449 (or $x780 (= S2_V4_!2457 S2_V4_!2462)) (or $x3506 (= S2_V4_!2457 S2_V4_!2473)) (or $x2284 (= S2_V4_!2457 S2_V4_!2483)) (or $x3709 (= S2_V4_!2462 S2_V4_!2473)) (or $x3943 (= S2_V4_!2462 S2_V4_!2483)) (or $x1361 (= S2_V4_!2483 S2_V4_!2473)) (or (not (or (not R_S1_V1) $x3449)) (= S1_V5_!2467 S1_V5_!2450)) (or $x1670 (= S1_V5_!2477 S1_V5_!2450)) (or $x800 (= S1_V5_!2477 S1_V5_!2467)) (or $x780 (= S2_V1_!2453 S2_V1_!2458)) (or $x2284 (= S2_V1_!2453 S2_V1_!2479)) (or $x3943 (= S2_V1_!2458 S2_V1_!2479)) (or $x2929 (= S2_V1_!2469 S2_V1_!2453)) (or $x2473 (= S2_V1_!2469 S2_V1_!2458)) (or $x963 (= S2_V1_!2469 S2_V1_!2479)) (or (not (or (not R_S1_V1) $x3449)) (= S1_V4_!2468 S1_V4_!2451)) (or $x2805 $x1240) (or $x1670 (= S1_V4_!2478 S1_V4_!2451)) (or $x780 (= S2_V2_!2455 S2_V2_!2460)) (or $x2929 $x3173) (or $x2473 (= S2_V2_!2471 S2_V2_!2460)) (or $x963 $x3501) (or $x3588 $x3070) (or $x2070 (= S2_V2_!2481 S2_V2_!2460)) (or $x780 $x1011) (or $x3506 $x5050) (or $x2284 $x3339) (or $x2473 $x3435) (or $x2070 $x5108) (or $x1361 $x1277) (not MW_S1_V1) (not MW_S1_V2) (or (not MW_S1_V5) W_S1_V5) (or (not MW_S1_V4) W_S1_V4) (or (not MW_S2_V1) W_S2_V1) (or (not MW_S2_V3) W_S2_V3) (or (not MW_S2_V2) W_S2_V2) (or (not MW_S2_V5) W_S2_V5))))
 (or (not $x3236) (not $x4669) (and (= ?x2605 ?x4926) $x1614 (= ?x1135 ?x3474) $x972 $x4804))))))))))))))))))))))))))))))))))))))))))))))))))))))))))))))))))))))))))))))))))))))))))))))
 )
 )
 )
 )
 )
 )
 )
 )
 )
 )
 )
 )
 )
 )
 )
 )
 )
 )
 )
 )
 )
 )
 )
 )
 )
 )
 )
 )
 )
 )
 )
 )
 )
 )
 )
 )
 )
 )
 )
 )
 )
 )
 )
 )
 )
 )
 )
 )
 )
 )
 )
 ))
 (let (($x1690 (not (or (and W_S2_V2 R_E1_V2) (and W_S2_V5 R_E1_V5) R_E1_V4))))
 (let (($x2062 (= DISJ_W_S2_R_E1 $x1690)))
 (let (($x2048 (and W_S2_V5 R_S2_V5)))
 (let (($x2549 (and W_S2_V2 R_S2_V2)))
 (let (($x775 (and W_S2_V3 R_S2_V3)))
 (let (($x4810 (and W_S2_V1 R_S2_V1)))
 (let (($x1597 (= DISJ_W_S2_R_S2 (not (or $x4810 $x775 $x2549 $x2048 R_S2_V4)))))
 (let (($x4058 (and W_S2_V5 R_S1_V5)))
 (let (($x2650 (and W_S2_V2 R_S1_V2)))
 (let (($x2921 (and W_S2_V3 R_S1_V3)))
 (let (($x3259 (and W_S2_V1 R_S1_V1)))
 (let (($x1332 (= DISJ_W_S2_R_S1 (not (or $x3259 $x2921 $x2650 $x4058 R_S1_V4)))))
 (let (($x2923 (= DISJ_W_S1_W_S2 (not (or W_S2_V3 (and W_S1_V5 W_S2_V5) W_S1_V4)))))
 (let (($x5961 (not R_E1_V3)))
 (let (($x1664 (not (or R_S2_V3 (and W_S1_V5 R_S2_V5) (and W_S1_V4 R_S2_V4)))))
 (let (($x2518 (= DISJ_W_S1_R_S2 $x1664)))
 (let (($x2405 (not (or R_S1_V3 (and W_S1_V5 R_S1_V5) (and W_S1_V4 R_S1_V4)))))
 (let (($x1788 (= DISJ_W_S1_R_S1 $x2405)))
 (let (($x120 (not R_S1_V1)))
 (let (($x4521 (and $x120 DISJ_W_S1_R_S1)))
 (let (($x1186 (and $x3035 DISJ_W_S2_R_S1 DISJ_W_S1_R_S1)))
 (let (($x5764 (or $x1186 $x758 $x4521)))
 (let (($x4282 (not W_S1_V2)))
 (let (($x3681 (not W_S1_V1)))
 (let (($x3914 (not R_E1_V1)))
 (let (($x5438 (and DISJ_W_S1_R_E1 $x3914 $x3681 $x4282 $x5764 W_S1_V3 W_S2_V4 $x1788 $x2518 $x5961 $x2923 $x1332 $x1597 $x2062 $x2222 $x5905 $x69)))
 (and $x5438 $x1604 $x1951 $x703 $x2419 $x1761 $x1637 $x2696 $x4966 $x1819 $x1205 $x1076 $x5869 $x1580 $x678 $x913 $x72 $x2824 $x2879)))))))))))))))))))))))))))))))))))))))))))))))))))))))
(check-sat)
